\ENCODING=ISO-8859-1
\Problem name: ilog.cplex

Maximize
 obj: 976 x(0)#0 + 412 x(1)#1 + 1112 x(2)#2 + 860 x(3)#3 + 865 x(4)#4
      + 245 x(5)#5 + 836 x(6)#6 + 522 x(7)#7 + 743 x(8)#8 + 735 x(9)#9
      + 576 x(10)#10 + 790 x(11)#11 + 354 x(12)#12 + 688 x(13)#13
      + 943 x(14)#14 + 706 x(15)#15 + 987 x(16)#16 + 1082 x(17)#17
      + 720 x(18)#18 + 846 x(19)#19 + 583 x(20)#20 + 487 x(21)#21
      + 641 x(22)#22 + 546 x(23)#23 + 1134 x(24)#24 + 727 x(25)#25
      + 491 x(26)#26 + 642 x(27)#27 + 548 x(28)#28 + 635 x(29)#29
      + 996 x(30)#30 + 620 x(31)#31 + 842 x(32)#32 + 722 x(33)#33
      + 693 x(34)#34 + 872 x(35)#35 + 678 x(36)#36 + 1054 x(37)#37
      + 573 x(38)#38 + 1000 x(39)#39 + 972 x(40)#40 + 961 x(41)#41
      + 793 x(42)#42 + 808 x(43)#43 + 529 x(44)#44 + 425 x(45)#45
      + 502 x(46)#46 + 875 x(47)#47 + 601 x(48)#48 + 339 x(49)#49
      + 466 x(50)#50 + 405 x(51)#51 + 882 x(52)#52 + 554 x(53)#53
      + 503 x(54)#54 + 746 x(55)#55 + 570 x(56)#56 + 808 x(57)#57
      + 511 x(58)#58 + 851 x(59)#59 + 768 x(60)#60 + 684 x(61)#61
      + 1029 x(62)#62 + 866 x(63)#63 + 697 x(64)#64 + 794 x(65)#65
      + 502 x(66)#66 + 882 x(67)#67 + 159 x(68)#68 + 769 x(69)#69
      + 440 x(70)#70 + 608 x(71)#71 + 1107 x(72)#72 + 960 x(73)#73
      + 594 x(74)#74 + 725 x(75)#75 + 727 x(76)#76 + 847 x(77)#77
      + 735 x(78)#78 + 509 x(79)#79 + 435 x(80)#80 + 343 x(81)#81
      + 770 x(82)#82 + 760 x(83)#83 + 841 x(84)#84 + 948 x(85)#85
      + 522 x(86)#86 + 771 x(87)#87 + 1109 x(88)#88 + 870 x(89)#89
      + 923 x(90)#90 + 775 x(91)#91 + 723 x(92)#92 + 798 x(93)#93
      + 640 x(94)#94 + 948 x(95)#95 + 1055 x(96)#96 + 810 x(97)#97
      + 716 x(98)#98 + 858 x(99)#99
Subject To
 c1: x(0)#0 + 168 x(1)#1 + 750 x(2)#2 + 725 x(3)#3 + 279 x(4)#4 + 463 x(5)#5
     + 274 x(6)#6 + 28 x(7)#7 + 474 x(8)#8 + 315 x(9)#9 + 604 x(10)#10
     + 142 x(11)#11 + 168 x(12)#12 + 634 x(13)#13 + 916 x(14)#14 + 695 x(15)#15
     + 883 x(16)#16 + 969 x(17)#17 + 126 x(18)#18 + 916 x(19)#19 + 16 x(20)#20
     + 545 x(21)#21 + 309 x(22)#22 + 345 x(23)#23 + 256 x(24)#24 + 578 x(25)#25
     + 259 x(26)#26 + 576 x(27)#27 + x(28)#28 + 228 x(29)#29 + 221 x(30)#30
     + 288 x(31)#31 + 668 x(32)#32 + 986 x(33)#33 + 488 x(34)#34 + 467 x(35)#35
     + 941 x(36)#36 + 917 x(37)#37 + 55 x(38)#38 + 573 x(39)#39 + 885 x(40)#40
     + 937 x(41)#41 + 695 x(42)#42 + 902 x(43)#43 + 175 x(44)#44 + 250 x(45)#45
     + 664 x(46)#46 + 270 x(47)#47 + 596 x(48)#48 + 188 x(49)#49 + 164 x(50)#50
     + 267 x(51)#51 + 998 x(52)#52 + 669 x(53)#53 + 77 x(54)#54 + 892 x(55)#55
     + 711 x(56)#56 + 588 x(57)#57 + 105 x(58)#58 + 443 x(59)#59 + 592 x(60)#60
     + 574 x(61)#61 + 972 x(62)#62 + 557 x(63)#63 + 560 x(64)#64 + 300 x(65)#65
     + 73 x(66)#66 + 256 x(67)#67 + 27 x(68)#68 + 221 x(69)#69 + 280 x(70)#70
     + 985 x(71)#71 + 534 x(72)#72 + 621 x(73)#73 + 302 x(74)#74 + 402 x(75)#75
     + 467 x(76)#76 + 155 x(77)#77 + 240 x(78)#78 + 862 x(79)#79 + 321 x(80)#80
     + 83 x(81)#81 + 93 x(82)#82 + 709 x(83)#83 + 57 x(84)#84 + 216 x(85)#85
     + 734 x(86)#86 + 22 x(87)#87 + 664 x(88)#88 + 311 x(89)#89 + 94 x(90)#90
     + 239 x(91)#91 + 927 x(92)#92 + 476 x(93)#93 + 530 x(94)#94 + 381 x(95)#95
     + 101 x(96)#96 + 629 x(97)#97 + 431 x(98)#98 + 757 x(99)#99 <= 34109
 c2: 823 x(0)#0 + 433 x(1)#1 + 582 x(2)#2 + 326 x(3)#3 + 829 x(4)#4
     + 102 x(5)#5 + 25 x(6)#6 + 404 x(7)#7 + 220 x(8)#8 + 373 x(9)#9
     + 618 x(10)#10 + 454 x(11)#11 + 259 x(12)#12 + 342 x(13)#13 + 599 x(14)#14
     + 442 x(15)#15 + 62 x(16)#16 + 914 x(17)#17 + 248 x(18)#18 + 445 x(19)#19
     + 379 x(20)#20 + 428 x(21)#21 + 508 x(22)#22 + 645 x(23)#23 + 849 x(24)#24
     + 15 x(25)#25 + 590 x(26)#26 + 474 x(27)#27 + 194 x(28)#28 + 527 x(29)#29
     + 548 x(30)#30 + 472 x(31)#31 + 20 x(32)#32 + 951 x(33)#33 + 265 x(34)#34
     + 886 x(35)#35 + 659 x(36)#36 + 541 x(37)#37 + 895 x(38)#38 + 508 x(39)#39
     + 11 x(40)#40 + 735 x(41)#41 + 287 x(42)#42 + 254 x(43)#43 + 321 x(44)#44
     + 148 x(45)#45 + 500 x(46)#46 + 274 x(47)#47 + 287 x(48)#48 + 138 x(49)#49
     + 794 x(50)#50 + 27 x(51)#51 + 905 x(52)#52 + 187 x(53)#53 + 754 x(54)#54
     + 180 x(55)#55 + 435 x(56)#56 + 847 x(57)#57 + 898 x(58)#58 + 236 x(59)#59
     + 831 x(60)#60 + 808 x(61)#61 + 998 x(62)#62 + 979 x(63)#63 + 240 x(64)#64
     + 359 x(65)#65 + 913 x(66)#66 + 408 x(67)#67 + 463 x(68)#68 + 434 x(69)#69
     + 466 x(70)#70 + 152 x(71)#71 + 352 x(72)#72 + 794 x(73)#73 + 943 x(74)#74
     + 854 x(75)#75 + 275 x(76)#76 + 646 x(77)#77 + 434 x(78)#78 + 14 x(79)#79
     + 172 x(80)#80 + 145 x(81)#81 + 830 x(82)#82 + 87 x(83)#83 + 610 x(84)#84
     + 260 x(85)#85 + 135 x(86)#86 + 668 x(87)#87 + 863 x(88)#88 + 43 x(89)#89
     + 637 x(90)#90 + 753 x(91)#91 + 789 x(92)#92 + 784 x(93)#93 + 255 x(94)#94
     + 853 x(95)#95 + 739 x(96)#96 + 123 x(97)#97 + 782 x(98)#98 + 324 x(99)#99
     <= 36215
 c3: 769 x(0)#0 + 4 x(1)#1 + 953 x(2)#2 + 314 x(3)#3 + 385 x(4)#4 + 142 x(5)#5
     + 794 x(6)#6 + 839 x(7)#7 + 138 x(8)#8 + 83 x(9)#9 + 635 x(10)#10
     + 77 x(11)#11 + 324 x(12)#12 + 71 x(13)#13 + 714 x(14)#14 + 170 x(15)#15
     + 877 x(16)#16 + 654 x(17)#17 + 477 x(18)#18 + 5 x(19)#19 + 13 x(20)#20
     + 92 x(21)#21 + 734 x(22)#22 + 571 x(23)#23 + 323 x(24)#24 + 265 x(25)#25
     + 845 x(26)#26 + 351 x(27)#27 + 477 x(28)#28 + 281 x(29)#29 + 872 x(30)#30
     + 987 x(31)#31 + 586 x(32)#32 + 204 x(33)#33 + 395 x(34)#34 + 41 x(35)#35
     + 193 x(36)#36 + 554 x(37)#37 + 720 x(38)#38 + 711 x(39)#39 + 245 x(40)#40
     + 364 x(41)#41 + 461 x(42)#42 + 718 x(43)#43 + 287 x(44)#44 + 467 x(45)#45
     + 320 x(46)#46 + 738 x(47)#47 + 874 x(48)#48 + 106 x(49)#49 + 34 x(50)#50
     + 160 x(51)#51 + 396 x(52)#52 + 58 x(53)#53 + 327 x(54)#54 + 920 x(55)#55
     + 81 x(56)#56 + 321 x(57)#57 + 193 x(58)#58 + 191 x(59)#59 + 815 x(60)#60
     + 593 x(61)#61 + 695 x(62)#62 + 739 x(63)#63 + 242 x(64)#64 + 554 x(65)#65
     + 194 x(66)#66 + 757 x(67)#67 + 21 x(68)#68 + 223 x(69)#69 + 113 x(70)#70
     + 200 x(71)#71 + 949 x(72)#72 + 729 x(73)#73 + 865 x(74)#74 + 732 x(75)#75
     + 470 x(76)#76 + 694 x(77)#77 + 262 x(78)#78 + 713 x(79)#79 + 321 x(80)#80
     + 79 x(81)#81 + 352 x(82)#82 + 939 x(83)#83 + 996 x(84)#84 + 653 x(85)#85
     + 294 x(86)#86 + 490 x(87)#87 + 888 x(88)#88 + 825 x(89)#89 + 779 x(90)#90
     + 7 x(91)#91 + 745 x(92)#92 + 861 x(93)#93 + 203 x(94)#94 + 78 x(95)#95
     + 848 x(96)#96 + 533 x(97)#97 + 572 x(98)#98 + 118 x(99)#99 <= 34532
 c4: 752 x(0)#0 + 381 x(1)#1 + 341 x(2)#2 + 953 x(3)#3 + 921 x(4)#4
     + 378 x(5)#5 + 159 x(6)#6 + 748 x(7)#7 + 752 x(8)#8 + 64 x(9)#9
     + 597 x(10)#10 + 934 x(11)#11 + 724 x(12)#12 + 607 x(13)#13 + 101 x(14)#14
     + 688 x(15)#15 + 894 x(16)#16 + 236 x(17)#17 + 724 x(18)#18 + 424 x(19)#19
     + 960 x(20)#20 + 608 x(21)#21 + 979 x(22)#22 + 430 x(23)#23 + 962 x(24)#24
     + 603 x(25)#25 + 324 x(26)#26 + 955 x(27)#27 + 532 x(28)#28 + 654 x(29)#29
     + 882 x(30)#30 + 156 x(31)#31 + 735 x(32)#32 + 748 x(33)#33 + 747 x(34)#34
     + 307 x(35)#35 + 314 x(36)#36 + 774 x(37)#37 + 479 x(38)#38 + 935 x(39)#39
     + 878 x(40)#40 + 1000 x(41)#41 + 894 x(42)#42 + 233 x(43)#43
     + 368 x(44)#44 + 680 x(45)#45 + 83 x(46)#46 + 358 x(47)#47 + 105 x(48)#48
     + 48 x(49)#49 + 449 x(50)#50 + 787 x(51)#51 + 992 x(52)#52 + 999 x(53)#53
     + 993 x(54)#54 + 468 x(55)#55 + 330 x(56)#56 + 916 x(57)#57 + 962 x(58)#58
     + 778 x(59)#59 + 511 x(60)#60 + 157 x(61)#61 + 605 x(62)#62 + 744 x(63)#63
     + 188 x(64)#64 + 83 x(65)#65 + 117 x(66)#66 + 588 x(67)#67 + 135 x(68)#68
     + 182 x(69)#69 + 857 x(70)#70 + 606 x(71)#71 + 759 x(72)#72 + 40 x(73)#73
     + 159 x(74)#74 + 594 x(75)#75 + 95 x(76)#76 + 554 x(77)#77 + 152 x(78)#78
     + 437 x(79)#79 + 350 x(80)#80 + 440 x(81)#81 + 278 x(82)#82 + 329 x(83)#83
     + 232 x(84)#84 + 894 x(85)#85 + 613 x(86)#86 + 129 x(87)#87 + 578 x(88)#88
     + 543 x(89)#89 + 532 x(90)#90 + 643 x(91)#91 + 248 x(92)#92 + 82 x(93)#93
     + 507 x(94)#94 + 753 x(95)#95 + 727 x(96)#96 + 99 x(97)#97 + 514 x(98)#98
     + 742 x(99)#99 <= 40184
 c5: 409 x(0)#0 + 826 x(1)#1 + 613 x(2)#2 + 304 x(3)#3 + 779 x(4)#4
     + 133 x(5)#5 + 913 x(6)#6 + 225 x(7)#7 + 760 x(8)#8 + 519 x(9)#9
     + 293 x(10)#10 + 485 x(11)#11 + 212 x(12)#12 + 181 x(13)#13 + 225 x(14)#14
     + 28 x(15)#15 + 945 x(16)#16 + 381 x(17)#17 + 991 x(18)#18 + 333 x(19)#19
     + 905 x(20)#20 + 341 x(21)#21 + 124 x(22)#22 + 103 x(23)#23 + 992 x(24)#24
     + 196 x(25)#25 + 253 x(26)#26 + 431 x(27)#27 + 206 x(28)#28 + 83 x(29)#29
     + 441 x(30)#30 + 7 x(31)#31 + 407 x(32)#32 + 193 x(33)#33 + 499 x(34)#34
     + 717 x(35)#35 + 419 x(36)#36 + 346 x(37)#37 + 116 x(38)#38 + 23 x(39)#39
     + 772 x(40)#40 + 589 x(41)#41 + 82 x(42)#42 + 671 x(43)#43 + 980 x(44)#44
     + 151 x(45)#45 + 819 x(46)#46 + 547 x(47)#47 + 482 x(48)#48 + 115 x(49)#49
     + 175 x(50)#50 + 233 x(51)#51 + 376 x(52)#52 + 118 x(53)#53 + 104 x(54)#54
     + 164 x(55)#55 + 78 x(56)#56 + 532 x(57)#57 + 99 x(58)#58 + 330 x(59)#59
     + 580 x(60)#60 + 277 x(61)#61 + 148 x(62)#62 + 473 x(63)#63 + 489 x(64)#64
     + 804 x(65)#65 + 787 x(66)#66 + 533 x(67)#67 + 95 x(68)#68 + 621 x(69)#69
     + 240 x(70)#70 + 35 x(71)#71 + 859 x(72)#72 + 812 x(73)#73 + 687 x(74)#74
     + 930 x(75)#75 + 37 x(76)#76 + 110 x(77)#77 + 260 x(78)#78 + 470 x(79)#79
     + 212 x(80)#80 + 713 x(81)#81 + 501 x(82)#82 + 356 x(83)#83 + 526 x(84)#84
     + 722 x(85)#85 + 282 x(86)#86 + 220 x(87)#87 + 322 x(88)#88 + 153 x(89)#89
     + 661 x(90)#90 + 842 x(91)#91 + 734 x(92)#92 + 727 x(93)#93 + 625 x(94)#94
     + 755 x(95)#95 + 568 x(96)#96 + 907 x(97)#97 + 181 x(98)#98 + 352 x(99)#99
     <= 32535
Bounds
 0 <= x(0)#0 <= 1
 0 <= x(1)#1 <= 1
 0 <= x(2)#2 <= 1
 0 <= x(3)#3 <= 1
 0 <= x(4)#4 <= 1
 0 <= x(5)#5 <= 1
 0 <= x(6)#6 <= 1
 0 <= x(7)#7 <= 1
 0 <= x(8)#8 <= 1
 0 <= x(9)#9 <= 1
 0 <= x(10)#10 <= 1
 0 <= x(11)#11 <= 1
 0 <= x(12)#12 <= 1
 0 <= x(13)#13 <= 1
 0 <= x(14)#14 <= 1
 0 <= x(15)#15 <= 1
 0 <= x(16)#16 <= 1
 0 <= x(17)#17 <= 1
 0 <= x(18)#18 <= 1
 0 <= x(19)#19 <= 1
 0 <= x(20)#20 <= 1
 0 <= x(21)#21 <= 1
 0 <= x(22)#22 <= 1
 0 <= x(23)#23 <= 1
 0 <= x(24)#24 <= 1
 0 <= x(25)#25 <= 1
 0 <= x(26)#26 <= 1
 0 <= x(27)#27 <= 1
 0 <= x(28)#28 <= 1
 0 <= x(29)#29 <= 1
 0 <= x(30)#30 <= 1
 0 <= x(31)#31 <= 1
 0 <= x(32)#32 <= 1
 0 <= x(33)#33 <= 1
 0 <= x(34)#34 <= 1
 0 <= x(35)#35 <= 1
 0 <= x(36)#36 <= 1
 0 <= x(37)#37 <= 1
 0 <= x(38)#38 <= 1
 0 <= x(39)#39 <= 1
 0 <= x(40)#40 <= 1
 0 <= x(41)#41 <= 1
 0 <= x(42)#42 <= 1
 0 <= x(43)#43 <= 1
 0 <= x(44)#44 <= 1
 0 <= x(45)#45 <= 1
 0 <= x(46)#46 <= 1
 0 <= x(47)#47 <= 1
 0 <= x(48)#48 <= 1
 0 <= x(49)#49 <= 1
 0 <= x(50)#50 <= 1
 0 <= x(51)#51 <= 1
 0 <= x(52)#52 <= 1
 0 <= x(53)#53 <= 1
 0 <= x(54)#54 <= 1
 0 <= x(55)#55 <= 1
 0 <= x(56)#56 <= 1
 0 <= x(57)#57 <= 1
 0 <= x(58)#58 <= 1
 0 <= x(59)#59 <= 1
 0 <= x(60)#60 <= 1
 0 <= x(61)#61 <= 1
 0 <= x(62)#62 <= 1
 0 <= x(63)#63 <= 1
 0 <= x(64)#64 <= 1
 0 <= x(65)#65 <= 1
 0 <= x(66)#66 <= 1
 0 <= x(67)#67 <= 1
 0 <= x(68)#68 <= 1
 0 <= x(69)#69 <= 1
 0 <= x(70)#70 <= 1
 0 <= x(71)#71 <= 1
 0 <= x(72)#72 <= 1
 0 <= x(73)#73 <= 1
 0 <= x(74)#74 <= 1
 0 <= x(75)#75 <= 1
 0 <= x(76)#76 <= 1
 0 <= x(77)#77 <= 1
 0 <= x(78)#78 <= 1
 0 <= x(79)#79 <= 1
 0 <= x(80)#80 <= 1
 0 <= x(81)#81 <= 1
 0 <= x(82)#82 <= 1
 0 <= x(83)#83 <= 1
 0 <= x(84)#84 <= 1
 0 <= x(85)#85 <= 1
 0 <= x(86)#86 <= 1
 0 <= x(87)#87 <= 1
 0 <= x(88)#88 <= 1
 0 <= x(89)#89 <= 1
 0 <= x(90)#90 <= 1
 0 <= x(91)#91 <= 1
 0 <= x(92)#92 <= 1
 0 <= x(93)#93 <= 1
 0 <= x(94)#94 <= 1
 0 <= x(95)#95 <= 1
 0 <= x(96)#96 <= 1
 0 <= x(97)#97 <= 1
 0 <= x(98)#98 <= 1
 0 <= x(99)#99 <= 1
Generals
 x(0)#0  x(1)#1  x(2)#2  x(3)#3  x(4)#4  x(5)#5  x(6)#6  x(7)#7  x(8)#8 
 x(9)#9  x(10)#10  x(11)#11  x(12)#12  x(13)#13  x(14)#14  x(15)#15  x(16)#16 
 x(17)#17  x(18)#18  x(19)#19  x(20)#20  x(21)#21  x(22)#22  x(23)#23 
 x(24)#24  x(25)#25  x(26)#26  x(27)#27  x(28)#28  x(29)#29  x(30)#30 
 x(31)#31  x(32)#32  x(33)#33  x(34)#34  x(35)#35  x(36)#36  x(37)#37 
 x(38)#38  x(39)#39  x(40)#40  x(41)#41  x(42)#42  x(43)#43  x(44)#44 
 x(45)#45  x(46)#46  x(47)#47  x(48)#48  x(49)#49  x(50)#50  x(51)#51 
 x(52)#52  x(53)#53  x(54)#54  x(55)#55  x(56)#56  x(57)#57  x(58)#58 
 x(59)#59  x(60)#60  x(61)#61  x(62)#62  x(63)#63  x(64)#64  x(65)#65 
 x(66)#66  x(67)#67  x(68)#68  x(69)#69  x(70)#70  x(71)#71  x(72)#72 
 x(73)#73  x(74)#74  x(75)#75  x(76)#76  x(77)#77  x(78)#78  x(79)#79 
 x(80)#80  x(81)#81  x(82)#82  x(83)#83  x(84)#84  x(85)#85  x(86)#86 
 x(87)#87  x(88)#88  x(89)#89  x(90)#90  x(91)#91  x(92)#92  x(93)#93 
 x(94)#94  x(95)#95  x(96)#96  x(97)#97  x(98)#98  x(99)#99 
End
